Route #1: 40 5 12 9 38 22 50 23 43
Route #2: 18 10 17 14 44 51 28 8 46
Route #3: 41 45 29 37 15 7 19
Route #4: 21 26 4 39 47 42 24 6 53
Route #5: 27 35 16 52 1 25
Route #6: 3 36 32 48
Route #7: 2 30 34 54 31 20 55 11 33 49 13
Cost 710
Time 0.224385
Tempo = 0.23645140000007814